Problem:    
Rows:       135
Columns:    53 (40 integer, 40 binary)
Non-zeros:  413
Status:     INTEGER OPTIMAL
Objective:  value = 70.394333 (MINimum)

   No.   Row name        Activity     Lower bound   Upper bound
------ ------------    ------------- ------------- -------------
     1 r.5                         1             1             = 
     2 r.6                   70.3943             0               
     3 r.7                   70.3943      -924.911               
     4 r.8                   1070.39             0               
     5 r.9                  -929.606      -931.999               
     6 r.10                  1070.39             0               
     7 r.11                 -930.626      -986.569               
     8 r.12                  70.3943             0               
     9 r.13                  70.3943      -987.813               
    10 r.14                  1070.39             0               
    11 r.15                 -944.057      -974.171               
    12 r.16                  70.3943             0               
    13 r.17                  55.9431      -963.779               
    14 r.18                  1070.39             0               
    15 r.19                 -969.886      -970.613               
    16 r.20                  70.3943             0               
    17 r.21                  30.1139      -972.614               
    18 r.22                  1070.39             0               
    19 r.23                 -929.606       -998.98               
    20 r.24                  70.3943             0               
    21 r.25                  70.3943       -997.81               
    22 r.26                  1070.39             0               
    23 r.27                 -999.273      -999.273               
    24 r.28                  70.3943             0               
    25 r.29                 0.727333      -998.166               
    26 r.30                        1             1             = 
    27 r.31                        1             1             = 
    28 r.32                        1             1             = 
    29 r.33                        1             1             = 
    30 r.34                        1             1             = 
    31 r.35                        1             1             = 
    32 r.36                     1001             2               
    33 r.37                    -1001         -1001               
    34 r.38                  1998.98      -986.569               
    35 r.39                     1001             2               
    36 r.40                    -1001         -1001               
    37 r.41                     2000      -987.813               
    38 r.42                     1001             2               
    39 r.43                    -1001         -1001               
    40 r.44                  1985.55      -974.171               
    41 r.45                     1001             2               
    42 r.46                    -1001         -1001               
    43 r.47                  1985.55      -963.779               
    44 r.48                     1001             2               
    45 r.49                    -1001         -1001               
    46 r.50                  1959.72      -970.613               
    47 r.51                     1001             2               
    48 r.52                    -1001         -1001               
    49 r.53                  1959.72      -972.614               
    50 r.54                     1001             2               
    51 r.55                    -1001         -1001               
    52 r.56                     2000       -998.98               
    53 r.57                     1001             2               
    54 r.58                    -1001         -1001               
    55 r.59                     2000       -997.81               
    56 r.60                   69.667      -924.911               
    57 r.61                 -930.333      -931.999               
    58 r.62                   69.667      -924.911               
    59 r.63                 -930.333      -931.999               
    60 r.64                     1001             2               
    61 r.65                    -1001         -1001               
    62 r.66                  2001.02       75.0886               
    63 r.67                     1001             2               
    64 r.68                    -1001         -1001               
    65 r.69                     2000       68.0009               
    66 r.70                 -986.569      -986.569               
    67 r.71                  14.4512      -987.813               
    68 r.72                 -986.569      -986.569               
    69 r.73                  14.4512      -987.813               
    70 r.74                        2             2               
    71 r.75                       -2         -1001               
    72 r.76                  -998.98       -998.98               
    73 r.77                     1000             2               
    74 r.78                    -1000         -1001               
    75 r.79                     2000       -997.81               
    76 r.80                     1001             2               
    77 r.81                    -1001         -1001               
    78 r.82                  2014.45       75.0886               
    79 r.83                     1001             2               
    80 r.84                    -1001         -1001               
    81 r.85                  2014.45       68.0009               
    82 r.86                 -974.171      -974.171               
    83 r.87                  25.8292      -963.779               
    84 r.88                 -974.171      -974.171               
    85 r.89                  25.8292      -963.779               
    86 r.90                        2             2               
    87 r.91                       -2         -1001               
    88 r.92                 -985.549       -998.98               
    89 r.93                     1000             2               
    90 r.94                    -1000         -1001               
    91 r.95                  2014.45       -997.81               
    92 r.96                     1001             2               
    93 r.97                    -1001         -1001               
    94 r.98                  2040.28       75.0886               
    95 r.99                     1001             2               
    96 r.100                   -1001         -1001               
    97 r.101                 2040.28       68.0009               
    98 r.102                       2             2               
    99 r.103                      -2         -1001               
   100 r.104                 -959.72       -998.98               
   101 r.105                    1000             2               
   102 r.106                   -1000         -1001               
   103 r.107                 2040.28       -997.81               
   104 r.108                -970.613      -970.613               
   105 r.109                 29.3866      -972.614               
   106 r.110                -970.613      -970.613               
   107 r.111                 29.3866      -972.614               
   108 r.112                    1001             2               
   109 r.113                   -1001         -1001               
   110 r.114                    2000       75.0886               
   111 r.115                    1001             2               
   112 r.116                   -1001         -1001               
   113 r.117                    2000       68.0009               
   114 r.118                       2             2               
   115 r.119                      -2         -1001               
   116 r.120                  998.98       13.4308               
   117 r.121                    1000             2               
   118 r.122                   -1000         -1001               
   119 r.123                    2000       12.1868               
   120 r.124                       2             2               
   121 r.125                      -2         -1001               
   122 r.126                 985.549       25.8292               
   123 r.127                    1000             2               
   124 r.128                   -1000         -1001               
   125 r.129                 1985.55       36.2205               
   126 r.130                       2             2               
   127 r.131                      -2         -1001               
   128 r.132                  959.72       29.3866               
   129 r.133                    1000             2               
   130 r.134                   -1000         -1001               
   131 r.135                 1959.72       27.3861               
   132 r.136                -930.333       -998.98               
   133 r.137                  69.667       -997.81               
   134 r.138                -930.333       -998.98               
   135 r.139                  69.667       -997.81               

   No. Column name       Activity     Lower bound   Upper bound
------ ------------    ------------- ------------- -------------
     1 tt                    70.3943             0               
     2 s_1_6        *              1             0             1 
     3 s_1_1        *              0             0             1 
     4 t_1_1                       0             0               
     5 s_2_1        *              1             0             1 
     6 t_2_1                       0             0               
     7 s_1_2        *              1             0             1 
     8 t_1_2                  1.0204             0               
     9 s_2_2        *              0             0             1 
    10 t_2_2                       0             0               
    11 s_1_3        *              1             0             1 
    12 t_1_3                 14.4512             0               
    13 s_2_3        *              0             0             1 
    14 t_2_3                 14.4512             0               
    15 s_1_4        *              1             0             1 
    16 t_1_4                 40.2804             0               
    17 s_2_4        *              0             0             1 
    18 t_2_4                 40.2804             0               
    19 s_1_5        *              1             0             1 
    20 t_1_5                       0             0               
    21 s_2_5        *              0             0             1 
    22 t_2_5                       0             0               
    23 t_1_6                  69.667             0               
    24 s_2_6        *              0             0             1 
    25 t_2_6                  69.667             0               
    26 r_1_1_2      *              1             0             1 
    27 u_1_1_2      *              0             0             1 
    28 r_2_1_2      *              1             0             1 
    29 u_2_1_2      *              0             0             1 
    30 r_1_1_3      *              1             0             1 
    31 u_1_1_3      *              0             0             1 
    32 r_2_1_3      *              1             0             1 
    33 u_2_1_3      *              0             0             1 
    34 r_1_1_4      *              1             0             1 
    35 u_1_1_4      *              0             0             1 
    36 r_2_1_4      *              1             0             1 
    37 u_2_1_4      *              0             0             1 
    38 r_1_1_5      *              1             0             1 
    39 u_1_1_5      *              0             0             1 
    40 r_2_1_5      *              1             0             1 
    41 u_2_1_5      *              0             0             1 
    42 r_1_2_5      *              0             0             1 
    43 u_1_2_5      *              1             0             1 
    44 r_2_2_5      *              1             0             1 
    45 u_2_2_5      *              0             0             1 
    46 r_1_3_5      *              0             0             1 
    47 u_1_3_5      *              1             0             1 
    48 r_2_3_5      *              1             0             1 
    49 u_2_3_5      *              0             0             1 
    50 r_1_4_5      *              0             0             1 
    51 u_1_4_5      *              1             0             1 
    52 r_2_4_5      *              1             0             1 
    53 u_2_4_5      *              0             0             1 

Integer feasibility conditions:

KKT.PE: max.abs.err = 0.00e+00 on row 0
        max.rel.err = 0.00e+00 on row 0
        High quality

KKT.PB: max.abs.err = 1.14e-13 on row 104
        max.rel.err = 1.17e-16 on row 104
        High quality

End of output
